1930
6901
6101
6079
4056
3325
963
3908
4971
7908
1012
7471
5029
6675
5619
1259
8330
9286
9838
3858
7107
7055
3962
9836
3133
8028
6569
4400
7598
6603
9955
8686
7189
2374
7512
9116
9068
2685
6165
6915
6244
5105
1400
5174
1585
8478
9516
7021
10182
10179
7802
